(set-info :smt-lib-version 2.6)
(set-logic QF_UFLRA)
(set-info :source |
MathSat group

|)
(set-info :category "random")
(set-info :status sat)
(declare-fun x0 () Real)
(declare-fun x1 () Real)
(declare-fun x2 () Real)
(declare-fun x3 () Real)
(declare-fun x4 () Real)
(declare-fun x5 () Real)
(declare-fun x6 () Real)
(declare-fun x7 () Real)
(declare-fun x8 () Real)
(declare-fun x9 () Real)
(declare-fun x10 () Real)
(declare-fun x11 () Real)
(declare-fun x12 () Real)
(declare-fun x13 () Real)
(declare-fun x14 () Real)
(declare-fun x15 () Real)
(declare-fun x16 () Real)
(declare-fun x17 () Real)
(declare-fun x18 () Real)
(declare-fun x19 () Real)
(declare-fun x20 () Real)
(declare-fun x21 () Real)
(declare-fun x22 () Real)
(declare-fun x23 () Real)
(declare-fun x24 () Real)
(declare-fun x25 () Real)
(declare-fun x26 () Real)
(declare-fun x27 () Real)
(declare-fun x28 () Real)
(declare-fun x29 () Real)
(declare-fun f0_1 (Real) Real)
(declare-fun f0_2 (Real Real) Real)
(declare-fun f0_3 (Real Real Real) Real)
(declare-fun f0_4 (Real Real Real Real) Real)
(declare-fun P0 () Bool)
(declare-fun P1 () Bool)
(declare-fun P2 () Bool)
(declare-fun P3 () Bool)
(declare-fun P4 () Bool)
(declare-fun P5 () Bool)
(declare-fun P6 () Bool)
(declare-fun P7 () Bool)
(declare-fun P8 () Bool)
(declare-fun P9 () Bool)
(declare-fun P10 () Bool)
(declare-fun P11 () Bool)
(declare-fun P12 () Bool)
(declare-fun P13 () Bool)
(declare-fun P14 () Bool)
(declare-fun P15 () Bool)
(declare-fun P16 () Bool)
(declare-fun P17 () Bool)
(declare-fun P18 () Bool)
(declare-fun P19 () Bool)
(declare-fun P20 () Bool)
(declare-fun P21 () Bool)
(declare-fun P22 () Bool)
(declare-fun P23 () Bool)
(declare-fun P24 () Bool)
(declare-fun P25 () Bool)
(declare-fun P26 () Bool)
(declare-fun P27 () Bool)
(declare-fun P28 () Bool)
(declare-fun P29 () Bool)
(assert (let ((?v_102 (<= (- (- (* 3 x19) (* 26 x13)) (* 34 x7)) 7)) (?v_70 (* 13 x18))) (let ((?v_44 (< (+ (- (* 21 x16) ?v_70) (* 13 x3)) 29)) (?v_37 (<= (- (- (* 35 x13) (* 41 x1)) (* 39 x20)) 28)) (?v_60 (* 27 x9))) (let ((?v_112 (< (- (- ?v_60 (* 6 x18)) (* 34 x8)) 26)) (?v_69 (<= (- (- (* 26 x25) (* 15 x8)) (* 35 x27)) 22)) (?v_145 (<= (+ (- (* 29 x9) (* 4 x18)) (* 41 x28)) 1)) (?v_135 (< (+ (- (* 36 x6) (* 32 x18)) (* 29 x15)) 31)) (?v_87 (<= (+ (- (* 36 x3) (* 28 x27)) (* 12 x13)) 7)) (?v_79 (< (- (- (* 17 x20) (* 33 x22)) (* 35 x25)) 18)) (?v_110 (<= (- (- (* 22 x18) (* 3 x4)) (* 31 x2)) 14)) (?v_80 (distinct (f0_2 x25 x19) (f0_2 x11 x4))) (?v_4 (f0_1 x20))) (let ((?v_2 (distinct ?v_4 x17)) (?v_75 (distinct (f0_1 x25) x14)) (?v_86 (= x17 (f0_1 x4))) (?v_116 (distinct x18 x0)) (?v_62 (distinct (f0_2 x6 x10) x12)) (?v_68 (distinct (f0_2 x7 x12) x3)) (?v_50 (= x27 (f0_1 x28))) (?v_3 (f0_1 x11))) (let ((?v_13 (distinct ?v_3 ?v_4)) (?v_73 (distinct (f0_1 x0) (f0_1 x10))) (?v_30 (= (f0_2 x3 x10) x3)) (?v_21 (= x6 (f0_2 x0 x16))) (?v_20 (distinct x4 x27)) (?v_23 (f0_1 x15))) (let ((?v_48 (= (f0_1 x9) ?v_23)) (?v_29 (distinct x18 x11)) (?v_27 (distinct ?v_3 (f0_2 x9 x8))) (?v_9 (distinct x3 (f0_2 x1 x2))) (?v_14 (= (f0_1 x1) (f0_2 x22 x2))) (?v_118 (= (f0_2 x13 x4) (f0_2 x4 x21))) (?v_49 (= x2 (f0_2 x9 x0))) (?v_104 (= (f0_1 x13) (f0_2 x13 x18))) (?v_45 (distinct ?v_23 (f0_1 x24))) (?v_59 (= (f0_1 x18) x19)) (?v_105 (distinct (f0_2 x12 x0) (f0_2 x5 x17))) (?v_56 (= (f0_2 x7 x16) (f0_1 x5))) (?v_51 (distinct (f0_1 x17) (f0_2 x13 x25))) (?v_99 (distinct (f0_2 x20 x12) (f0_2 x28 x23))) (?v_32 (= (f0_2 x13 x9) (f0_1 x27))) (?v_40 (distinct x8 (f0_2 x3 x8))) (?v_103 (distinct ?v_4 (f0_2 x19 x19))) (?v_31 (not ?v_73))) (let ((?v_41 (not ?v_27)) (?v_85 (not P9)) (?v_26 (not ?v_9)) (?v_33 (not ?v_105)) (?v_5 (not P12)) (?v_38 (not ?v_13)) (?v_121 (not P22)) (?v_108 (not ?v_110)) (?v_147 (or P7 ?v_99)) (?v_10 (not ?v_103)) (?v_65 (not P11)) (?v_34 (not P17)) (?v_76 (not ?v_20)) (?v_19 (not P13)) (?v_123 (not ?v_87)) (?v_81 (not P10)) (?v_63 (not P8)) (?v_42 (not P18)) (?v_17 (not ?v_14)) (?v_36 (not P6)) (?v_66 (not P4)) (?v_47 (not ?v_21)) (?v_107 (not ?v_104)) (?v_77 (not ?v_86)) (?v_64 (not ?v_49)) (?v_74 (not ?v_29)) (?v_126 (not P3)) (?v_84 (not P25)) (?v_58 (not ?v_51)) (?v_109 (not ?v_50)) (?v_124 (not ?v_37)) (?v_90 (not ?v_80)) (?v_125 (not P27)) (?v_94 (not ?v_32)) (?v_119 (not ?v_40)) (?v_39 (not ?v_79)) (?v_52 (not ?v_44)) (?v_96 (not P5)) (?v_53 (not ?v_45)) (?v_61 (not P15)) (?v_55 (not ?v_145)) (?v_71 (not ?v_56)) (?v_144 (not ?v_69)) (?v_95 (not ?v_112)) (?v_83 (not ?v_48)) (?v_149 (not ?v_68)) (?v_139 (not P2)) (?v_88 (not ?v_2)) (?v_142 (not ?v_135)) (?v_138 (not P21)) (?v_100 (not ?v_75)) (?v_93 (not P29)) (?v_115 (not ?v_30)) (?v_91 (not ?v_116)) (?v_106 (not P1)) (?v_98 (not P24)) (?v_122 (not ?v_118)) (?v_127 (not P20)) (?v_114 (not ?v_102)) (?v_137 (not P16)) (?v_134 (not P19)) (?v_129 (not ?v_62)) (?v_146 (not P7)) (?v_133 (not P23)) (?v_136 (not P28)) (?v_148 (not ?v_59)) (?v_151 (not P14))) (let ((?v_150 (or ?v_99 ?v_125)) (?v_8 (= (- (- (* 27 x4) 0) (* 22 x22)) 6))) (let ((?v_12 (not ?v_8)) (?v_0 (< (- (- (* (- 39) x8) (* 9 x25)) (* 12 x16)) 27))) (let ((?v_6 (not ?v_0)) (?v_1 (distinct (- (- (* (- 21) x22) (* 23 x28)) (* 29 x16)) 40)) (?v_22 (< (+ (- (* (- 37) x23) (* 22 x8)) (* 9 x5)) (- 7))) (?v_15 (< (- (+ (* (- 2) x22) (* 26 x29)) (* 38 x10)) (- 40)))) (let ((?v_7 (not ?v_1)) (?v_46 (<= (- (+ (* (- 4) x19) (* 39 x4)) (* 24 x14)) 1)) (?v_67 (< (+ (- (* (- 28) x27) x27) (* 10 x29)) 41)) (?v_11 (<= (- (- (* (- 33) x2) (* 19 x1)) (* 41 x4)) (- 14)))) (let ((?v_28 (not ?v_11)) (?v_130 (<= (+ (- (* 36 x8) (* 42 x5)) ?v_60) (- 10)))) (let ((?v_140 (not ?v_130)) (?v_92 (<= (- (+ (* 10 x21) (* 2 x13)) (* 24 x29)) (- 14)))) (let ((?v_18 (not ?v_92)) (?v_16 (< (- (- (* 20 x8) (* 31 x6)) (* 25 x24)) (- 28)))) (let ((?v_89 (not ?v_16)) (?v_43 (< (+ (- (* (- 24) x28) x25) (* 12 x25)) (- 14))) (?v_25 (<= (+ (* (- 17) x14) (* 32 x8) (* 2 x7)) (- 26))) (?v_72 (< (+ (- (* (- 21) x17) (* 32 x15)) (* 34 x3)) (- 3))) (?v_35 (<= (+ (* (- 4) x3) (* 2 x15) (* 25 x16)) 19))) (let ((?v_24 (not ?v_35)) (?v_132 (= (+ (* 14 x2) (* 39 x27) (* 14 x16)) (- 25)))) (let ((?v_120 (not ?v_132)) (?v_57 (not ?v_22)) (?v_82 (<= (+ (- (* 25 x29) (* 17 x28)) (* 40 x28)) (- 2)))) (let ((?v_128 (not ?v_82)) (?v_54 (<= (- (+ (* (- 38) x20) (* 4 x12)) (* 6 x1)) (- 7)))) (let ((?v_143 (not ?v_54)) (?v_78 (< (- (+ (* (- 40) x8) (* 8 x18)) (* 33 x2)) 4)) (?v_131 (not ?v_25)) (?v_141 (not ?v_67)) (?v_101 (< (+ (- (* (- 28) x20) ?v_70) (* 8 x5)) (- 27))) (?v_117 (not ?v_15))) (let ((?v_113 (not ?v_78)) (?v_97 (not ?v_72)) (?v_111 (not ?v_101))) (and (and (and (and (and (and (and (and (and (and (and (and (and (and (and (and (and (and (and (and (and (and (and (and (and (and (and (and (and (and (and (and (and (and (and (and (and (and (and (and (and (and (and (and (and (and (and (and (and (and (and (and (and (and (and (and (and (and (and (and (and (and (and (and (and (and (and (and (and (and (and (and (and (and (and (and (and (and (and (and (and (and (and (and (and (and (and (and (and (and (and (and (and (and (and (and (and (and (and (and (and (and (and (and (and (and (and (and (and (and (and (and (and (and (and (and (and (and (and (and (and (and (and (and (and (and (and (and (and (and (and (and (and (and (and (and (and (and (and (and (and (and (and (and (and (and (and (and (and (and (and (and (and (and (and (and (and (and (and (and (and (and (and (and (and (and (and (and (and (and (and (and (and (and (and (and (and (and (and (and (and (and (and (and (and (and (and (and (and (and (and (and (and (and (and (and (and (and (and (and (and (and (and (and (and (and (and (and (and (and (and (and (and (and (and (and (and (and (and (and (and (and (and (and (and (and (and (and (and (and (and (and (and (and (and (and (and (and (and (and (and (and (and (and (and (and (and (and (and (and (and (and (and (and (and (and (and (and (and (and (and (and (and (and (and (and (and (and (and (and (and (and (and (and (and (and (and (and (and (and (and (and (and (and (and (and (and (and (and (and (and (and (and (and (and (and (and (and (and (and (and (and (and (and (and (and (and (and (and (and (and (and (and (and (and (and (and (and (and (and (and (and (and (and (and (and (and (and (and (and (and (and (and (and (and (and (and (and (and (and (and (and (and (and (and (and (and (and (and (and (and (and (and (and (and (and (and (and (and (or (or ?v_6 ?v_31) P7) (or (or ?v_0 ?v_48) ?v_41)) (or (or ?v_1 P21) ?v_85)) (or (or ?v_26 ?v_33) ?v_22)) (or (or P0 ?v_8) ?v_2)) (or (or ?v_15 P13) ?v_7)) (or (or ?v_46 ?v_67) ?v_5)) (or (or ?v_28 ?v_2) P13)) (or (or ?v_38 ?v_121) ?v_108)) (or ?v_147 ?v_140)) (or (or P21 ?v_18) ?v_89)) (or (or ?v_5 ?v_6) ?v_10)) (or (or ?v_65 ?v_34) ?v_32)) (or (or ?v_76 ?v_19) ?v_7)) (or (or ?v_12 ?v_68) ?v_14)) (or (or ?v_9 ?v_123) P7)) (or (or ?v_81 ?v_43) ?v_10)) (or (or ?v_11 ?v_56) P16)) (or (or ?v_63 ?v_25) ?v_12)) (or (or P0 ?v_42) ?v_13)) (or (or ?v_30 ?v_17) ?v_15)) (or (or ?v_16 P13) ?v_36)) (or (or ?v_17 ?v_72) P7)) (or (or P10 ?v_18) ?v_24)) (or (or ?v_19 ?v_21) ?v_20)) (or (or P5 P11) ?v_66)) (or (or P15 ?v_47) ?v_102)) (or (or ?v_107 ?v_77) ?v_120)) (or (or ?v_64 ?v_74) ?v_19)) (or (or ?v_126 ?v_57) ?v_84)) (or (or ?v_75 ?v_45) ?v_24)) (or (or P0 ?v_15) ?v_58)) (or (or ?v_25 ?v_12) ?v_109)) (or (or P11 P22) ?v_128)) (or (or ?v_26 ?v_6) ?v_124)) (or (or ?v_90 ?v_27) ?v_28)) (or (or ?v_6 P1) ?v_125)) (or (or ?v_59 ?v_29) ?v_30)) (or (or ?v_31 ?v_94) ?v_30)) (or (or ?v_33 ?v_119) ?v_143)) (or (or P4 ?v_17) ?v_34)) (or (or P3 ?v_39) ?v_35)) (or (or P27 ?v_19) ?v_36)) (or (or ?v_37 ?v_38) P27)) (or (or ?v_52 P3) ?v_62)) (or (or ?v_0 ?v_39) ?v_2)) (or (or ?v_40 P16) ?v_41)) (or (or ?v_42 P6) ?v_32)) (or (or P20 (not ?v_43)) ?v_96)) (or (or ?v_16 ?v_44) ?v_45)) (or (or P11 ?v_53) ?v_61)) (or (or (not ?v_46) ?v_55) P22)) (or (or P20 ?v_47) P26)) (or (or ?v_35 P23) ?v_16)) (or (or ?v_48 ?v_49) ?v_50)) (or (or ?v_51 ?v_52) ?v_53)) (or (or ?v_54 ?v_47) ?v_78)) (or (or ?v_131 ?v_41) ?v_55)) (or (or ?v_71 P22) ?v_19)) (or (or ?v_14 ?v_144) ?v_57)) (or (or ?v_58 ?v_59) ?v_55)) (or (or ?v_16 P22) ?v_56)) (or (or ?v_95 ?v_44) P3)) (or (or P21 ?v_51) ?v_27)) (or (or ?v_61 ?v_35) P12)) (or (or ?v_62 P23) ?v_63)) (or (or P21 P23) ?v_46)) (or (or P17 ?v_43) ?v_64)) (or (or ?v_65 ?v_83) ?v_66)) (or (or ?v_67 ?v_149) ?v_19)) (or (or ?v_8 ?v_139) P8)) (or (or ?v_141 ?v_39) ?v_69)) (or (or ?v_54 P9) ?v_64)) (or (or P23 ?v_30) ?v_29)) (or (or ?v_45 ?v_14) ?v_88)) (or (or ?v_101 ?v_62) ?v_35)) (or (or ?v_30 P10) P29)) (or (or ?v_71 ?v_142) P2)) (or (or ?v_19 ?v_9) P3)) (or (or ?v_72 ?v_73) ?v_74)) (or (or ?v_14 ?v_5) ?v_117)) (or (or ?v_6 ?v_138) ?v_73)) (or (or ?v_75 ?v_76) ?v_54)) (or (or ?v_100 P10) ?v_93)) (or (or P1 ?v_77) ?v_55)) (or (or ?v_30 ?v_113) ?v_79)) (or (or P21 ?v_115) ?v_16)) (or (or ?v_80 ?v_79) ?v_34)) (or (or ?v_81 ?v_55) ?v_91)) (or (or ?v_67 P1) ?v_25)) (or (or ?v_82 ?v_83) ?v_11)) (or (or ?v_84 ?v_30) ?v_85)) (or (or ?v_19 ?v_1) ?v_81)) (or (or ?v_67 ?v_21) ?v_86)) (or (or ?v_87 ?v_106) P6)) (or (or P11 ?v_36) ?v_55)) (or (or ?v_58 P7) ?v_75)) (or (or ?v_88 ?v_89) ?v_18)) (or (or ?v_90 ?v_57) ?v_2)) (or (or ?v_74 ?v_98) ?v_34)) (or (or ?v_91 ?v_36) ?v_61)) (or (or ?v_92 P9) P27)) (or (or ?v_93 ?v_81) ?v_73)) (or (or ?v_122 ?v_57) ?v_72)) (or (or ?v_39 P17) ?v_64)) (or (or ?v_94 ?v_77) ?v_78)) (or (or ?v_2 ?v_77) ?v_10)) (or (or ?v_97 ?v_95) P13)) (or (or ?v_91 ?v_96) ?v_14)) (or (or ?v_36 ?v_50) ?v_78)) (or (or ?v_97 ?v_13) ?v_1)) (or (or ?v_66 ?v_81) P16)) (or (or ?v_55 ?v_1) P25)) (or (or ?v_98 ?v_97) ?v_48)) (or (or ?v_76 ?v_5) ?v_10)) (or (or ?v_57 (not ?v_99)) ?v_25)) (or (or ?v_100 ?v_36) ?v_127)) (or (or ?v_111 ?v_114) ?v_103)) (or (or ?v_97 ?v_61) ?v_78)) (or (or ?v_88 ?v_104) ?v_9)) (or (or ?v_31 ?v_88) ?v_34)) (or (or ?v_93 ?v_1) ?v_65)) (or (or ?v_25 P8) P0)) (or (or ?v_87 ?v_71) ?v_105)) (or (or ?v_106 P19) ?v_62)) (or (or ?v_71 ?v_107) ?v_74)) (or (or ?v_104 ?v_80) ?v_36)) (or (or ?v_106 ?v_86) ?v_25)) (or (or P11 ?v_43) P17)) (or (or P28 ?v_69) ?v_28)) (or (or ?v_57 ?v_102) ?v_98)) (or (or ?v_73 ?v_108) ?v_64)) (or (or ?v_17 P15) ?v_37)) (or (or ?v_82 ?v_100) ?v_109)) (or (or ?v_15 ?v_29) ?v_30)) (or (or ?v_57 P6) ?v_110)) (or (or P20 ?v_28) ?v_59)) (or (or ?v_64 ?v_34) (not P26))) (or (or ?v_75 ?v_61) ?v_30)) (or (or ?v_28 ?v_111) ?v_63)) (or (or ?v_10 ?v_24) ?v_47)) (or (or ?v_112 ?v_96) ?v_80)) (or (or P11 ?v_113) ?v_105)) (or (or ?v_110 ?v_114) ?v_47)) (or (or ?v_103 ?v_11) ?v_64)) (or (or ?v_80 ?v_115) ?v_101)) (or (or ?v_116 ?v_78) ?v_49)) (or (or P13 ?v_114) ?v_110)) (or (or ?v_101 ?v_117) P8)) (or (or ?v_137 P23) ?v_1)) (or (or ?v_118 ?v_77) ?v_74)) (or (or P19 ?v_119) ?v_1)) (or (or ?v_106 ?v_97) ?v_94)) (or (or ?v_134 P24) P25)) (or (or ?v_71 ?v_120) ?v_67)) (or (or ?v_66 ?v_75) ?v_121)) (or (or ?v_49 ?v_12) P16)) (or (or ?v_107 ?v_122) ?v_19)) (or (or (not P0) ?v_79) ?v_123)) (or (or ?v_34 ?v_53) ?v_49)) (or (or ?v_48 ?v_50) P17)) (or (or ?v_124 ?v_125) ?v_106)) (or (or ?v_61 ?v_129) ?v_24)) (or (or ?v_108 ?v_124) ?v_126)) (or (or ?v_8 ?v_8) P20)) (or (or ?v_94 P28) ?v_109)) (or (or ?v_127 ?v_128) ?v_94)) (or (or ?v_74 ?v_129) P12)) (or (or ?v_108 ?v_146) ?v_133)) (or (or ?v_102 ?v_113) P6)) (or (or ?v_62 P27) ?v_68)) (or (or ?v_29 ?v_100) ?v_6)) (or (or P29 P21) P1)) (or (or ?v_104 ?v_2) P13)) (or (or ?v_44 ?v_89) ?v_76)) (or (or ?v_2 ?v_128) ?v_120)) (or (or ?v_67 ?v_76) P7)) (or (or ?v_122 ?v_109) ?v_130)) (or (or ?v_124 P27) ?v_110)) (or (or P28 P4) P10)) (or (or ?v_102 ?v_74) P23)) (or (or ?v_2 ?v_75) ?v_103)) (or (or ?v_13 ?v_82) ?v_117)) (or (or ?v_26 ?v_19) ?v_43)) (or (or ?v_62 P18) P5)) (or (or ?v_68 ?v_99) ?v_59)) (or (or P22 ?v_131) ?v_68)) (or (or ?v_94 ?v_132) ?v_44)) (or (or P21 ?v_121) ?v_28)) (or (or ?v_35 P16) ?v_86)) (or (or ?v_28 ?v_11) ?v_48)) (or (or ?v_125 P4) ?v_33)) (or (or ?v_66 ?v_34) ?v_84)) (or (or ?v_56 ?v_99) ?v_75)) (or (or P12 ?v_50) ?v_11)) (or (or ?v_74 ?v_11) ?v_47)) (or (or ?v_64 ?v_77) ?v_101)) (or (or ?v_67 ?v_106) ?v_56)) (or (or ?v_133 ?v_71) ?v_16)) (or (or ?v_76 P16) ?v_44)) (or (or ?v_21 ?v_40) ?v_134)) (or (or ?v_32 P2) ?v_135)) (or (or ?v_67 ?v_136) ?v_36)) (or (or ?v_110 ?v_121) P27)) (or (or ?v_87 ?v_80) ?v_124)) (or (or ?v_52 ?v_121) P4)) (or (or P7 ?v_119) P17)) (or (or ?v_42 ?v_87) ?v_6)) (or (or P7 ?v_41) ?v_21)) (or (or ?v_75 ?v_1) ?v_38)) (or (or P3 ?v_17) ?v_80)) (or (or ?v_0 ?v_42) ?v_16)) (or (or ?v_9 ?v_94) ?v_106)) (or (or P11 ?v_24) P26)) (or (or ?v_17 P20) ?v_7)) (or (or ?v_93 ?v_136) P20)) (or (or P19 ?v_61) ?v_17)) (or (or ?v_96 P12) P6)) (or (or ?v_28 ?v_69) P20)) (or (or ?v_113 ?v_53) ?v_86)) (or (or ?v_45 ?v_27) ?v_48)) (or (or ?v_103 ?v_103) ?v_95)) (or (or ?v_137 ?v_12) ?v_5)) (or (or ?v_2 ?v_57) ?v_82)) (or (or P19 ?v_138) ?v_47)) (or (or ?v_10 ?v_116) ?v_46)) (or (or ?v_30 P12) ?v_37)) (or (or ?v_75 ?v_99) ?v_22)) (or (or ?v_7 ?v_111) ?v_138)) (or (or P2 ?v_124) P16)) (or (or ?v_125 ?v_61) ?v_48)) (or (or ?v_9 ?v_63) ?v_125)) (or (or ?v_27 ?v_48) ?v_90)) (or (or ?v_91 ?v_116) ?v_128)) (or (or ?v_91 ?v_1) ?v_29)) (or (or ?v_135 ?v_1) ?v_17)) (or (or ?v_139 P2) ?v_115)) (or (or ?v_116 ?v_95) ?v_75)) (or (or ?v_64 ?v_85) ?v_21)) (or (or ?v_48 ?v_28) ?v_137)) (or (or P2 P13) P10)) (or (or ?v_117 P10) ?v_10)) (or (or ?v_22 ?v_92) ?v_68)) (or (or P11 ?v_83) ?v_100)) (or (or ?v_52 ?v_115) ?v_56)) (or (or ?v_79 ?v_88) ?v_82)) (or (or ?v_38 ?v_90) ?v_88)) (or (or ?v_28 P29) ?v_0)) (or (or ?v_82 ?v_54) ?v_134)) (or (or ?v_64 ?v_139) ?v_50)) (or (or P11 P28) ?v_73)) (or (or ?v_140 ?v_116) P12)) (or (or ?v_132 ?v_67) ?v_5)) (or (or P28 ?v_16) ?v_46)) (or (or ?v_62 ?v_68) P14)) (or (or ?v_43 P11) ?v_16)) (or (or ?v_69 ?v_100) ?v_44)) (or (or P25 ?v_40) P17)) (or (or ?v_43 P10) P8)) (or (or ?v_12 ?v_115) P15)) (or (or ?v_49 ?v_114) P28)) (or (or ?v_59 ?v_55) ?v_138)) (or (or P27 ?v_148) ?v_27)) (or (or ?v_15 ?v_124) ?v_51)) (or (or ?v_78 ?v_30) P10)) (or (or ?v_65 ?v_116) ?v_98)) (or (or ?v_141 ?v_135) ?v_82)) (or (or ?v_90 ?v_84) ?v_12)) (or (or ?v_44 ?v_130) ?v_32)) (or (or ?v_36 ?v_87) ?v_93)) (or (or ?v_111 ?v_1) P20)) (or (or ?v_72 P14) P28)) (or (or ?v_46 ?v_142) P0)) (or (or ?v_100 ?v_95) ?v_139)) (or (or ?v_108 ?v_50) ?v_143)) (or (or ?v_85 ?v_109) ?v_9)) (or (or ?v_134 P17) ?v_43)) (or (or ?v_140 P9) ?v_96)) (or (or ?v_63 P3) ?v_140)) (or (or ?v_68 ?v_95) ?v_78)) (or (or ?v_144 ?v_35) ?v_83)) (or (or ?v_100 P21) ?v_151)) (or (or ?v_110 ?v_85) ?v_145)) (or ?v_150 ?v_131)) (or (or ?v_103 ?v_9) ?v_127)) (or (or ?v_96 ?v_124) P9)) (or (or ?v_64 P14) ?v_47)) (or (or ?v_9 ?v_57) ?v_75)) (or (or ?v_99 ?v_55) ?v_92)) (or (or ?v_83 ?v_48) ?v_66)) (or (or ?v_146 ?v_79) ?v_75)) (or (or ?v_121 ?v_62) ?v_69)) (or (or P14 P19) ?v_118)) (or (or ?v_94 ?v_108) ?v_106)) (or (or ?v_35 ?v_49) ?v_77)) (or (or ?v_87 ?v_31) P23)) (or (or ?v_67 ?v_66) ?v_56)) (or (or ?v_57 ?v_16) P1)) (or (or ?v_86 P29) ?v_109)) (or (or ?v_96 ?v_96) ?v_85)) (or (or ?v_66 P3) ?v_8)) (or (or ?v_123 ?v_112) ?v_143)) (or (or ?v_95 ?v_116) ?v_51)) (or (or ?v_5 P13) ?v_146)) (or (or ?v_21 ?v_73) ?v_120)) (or (or ?v_92 ?v_7) ?v_121)) (or (or ?v_47 ?v_46) ?v_128)) (or ?v_147 ?v_113)) (or (or ?v_52 ?v_18) ?v_31)) (or (or ?v_72 P20) P16)) (or (or ?v_128 ?v_107) ?v_139)) (or (or ?v_148 ?v_136) ?v_32)) (or (or ?v_12 ?v_71) ?v_120)) (or (or ?v_88 ?v_136) P14)) (or (or ?v_39 ?v_113) ?v_43)) (or (or ?v_53 ?v_135) P28)) (or (or P24 P28) ?v_5)) (or (or ?v_96 ?v_32) ?v_69)) (or (or P28 ?v_15) ?v_135)) (or (or ?v_5 ?v_54) ?v_9)) (or (or ?v_114 ?v_133) P18)) (or (or ?v_67 ?v_31) ?v_6)) (or (or ?v_118 ?v_72) ?v_44)) (or (or P12 P5) ?v_67)) (or (or ?v_65 ?v_112) ?v_62)) (or (or P18 ?v_24) ?v_125)) (or (or ?v_50 ?v_73) ?v_120)) (or (or ?v_78 ?v_149) ?v_13)) (or (or ?v_141 ?v_52) ?v_48)) (or (or ?v_103 ?v_26) ?v_14)) (or (or ?v_67 P22) ?v_18)) (or ?v_150 ?v_62)) (or (or ?v_16 ?v_101) ?v_107)) (or (or P11 ?v_59) ?v_124)) (or (or P16 ?v_87) ?v_149)) (or (or ?v_32 ?v_34) P0)) (or (or ?v_79 ?v_146) ?v_66)) (or (or ?v_33 ?v_38) ?v_17)) (or (or ?v_137 ?v_49) ?v_18)) (or (or ?v_12 P13) ?v_38)) (or (or ?v_50 ?v_125) ?v_38)) (or (or P20 ?v_68) ?v_83)) (or (or ?v_100 ?v_41) ?v_51)) (or (or ?v_62 ?v_137) ?v_20)) (or (or ?v_35 ?v_143) ?v_14)) (or (or ?v_140 ?v_142) ?v_45)) (or (or ?v_15 ?v_36) ?v_111)) (or (or ?v_11 ?v_94) P16)) (or (or ?v_12 P11) ?v_5)) (or (or ?v_74 ?v_102) ?v_109)) (or (or P8 ?v_33) ?v_78)) (or (or P14 ?v_7) ?v_74)) (or (or P7 ?v_54) ?v_151)) (or (or ?v_20 ?v_56) ?v_111)) (or (or ?v_32 ?v_78) ?v_48)) (or (or ?v_43 ?v_98) ?v_6)) (or (or P9 ?v_115) ?v_0)) (or (or ?v_22 ?v_127) ?v_119)) (or (or ?v_36 ?v_14) ?v_95)) (or (or ?v_17 P11) ?v_134)))))))))))))))))))))))
(check-sat)
(exit)
